============================[ Problem Statistics ]=============================
|                                                                             |
|  Number of variables:           400                                         |
|  Number of clauses:            1700                                         |
|  Parse time:                   0.00 s                                       |
|  Eliminated clauses:           0.00 Mb                                      |
|  Simplification time:          0.00 s                                       |
|                                                                             |
============================[ Search Statistics ]==============================
| Conflicts |          ORIGINAL         |          LEARNT          | Progress |
|           |    Vars  Clauses Literals |    Limit  Clauses Lit/Cl |          |
===============================================================================
|       100 |     390     1680     5032 |      616      100     18 |  0.001 % |
|       250 |     390     1680     5032 |      677      250     19 |  0.001 % |
|       475 |     390     1680     5032 |      745      475     18 |  0.001 % |
|       812 |     390     1680     5032 |      819      419     17 |  0.001 % |
|      1318 |     390     1680     5032 |      901      493     16 |  0.001 % |
|      2077 |     390     1680     5032 |      992      782     15 |  0.001 % |
|      3216 |     390     1680     5032 |     1091      904     14 |  0.001 % |
|      4924 |     390     1680     5032 |     1200      926     14 |  0.001 % |
|      7486 |     390     1680     5032 |     1320     1013     15 |  0.001 % |
|     11330 |     390     1680     5032 |     1452      779     13 |  0.001 % |
|     17096 |     390     1680     5032 |     1597     1364     14 |  0.001 % |
|     25745 |     390     1680     5032 |     1757     1060     13 |  0.001 % |
|     38719 |     390     1680     5032 |     1933     1516     14 |  0.001 % |
|     58180 |     390     1680     5032 |     2126     1349     14 |  0.001 % |
|     87372 |     390     1680     5032 |     2339     1359     14 |  0.001 % |
|    131161 |     390     1680     5032 |     2573     1262     13 |  0.001 % |
|    196845 |     390     1680     5032 |     2830     1718     14 |  0.001 % |
|    295371 |     390     1680     5032 |     3113     2798     14 |  0.001 % |
|    443160 |     390     1680     5032 |     3424     2524     14 |  0.001 % |
|    664843 |     390     1680     5032 |     3767     2686     15 |  0.001 % |
|    997368 |     390     1680     5032 |     4144     2333     14 |  0.001 % |
|   1496156 |     390     1680     5032 |     4558     3621     14 |  0.001 % |
|   2244338 |     390     1680     5032 |     5014     2836     15 |  0.001 % |
|   3366612 |     390     1680     5032 |     5515     3836     15 |  0.001 % |
===============================================================================
restarts              : 8190
conflicts             : 4784225        (46790 /sec)
decisions             : 5807724        (0.00 % random) (56800 /sec)
propagations          : 283229619      (2770026 /sec)
conflict literals     : 74493486       (25.87 % deleted)
Memory used           : 6.00 MB
CPU time              : 102.248 s

UNSATISFIABLE